
List of user-set options:

                                    Name   Value                used
                         derivative_test = first-order           yes
                        file_print_level = 5                     yes
                   hessian_approximation = limited-memory        yes
                                  hsllib = /home/ggs24/packages/ThirdParty-HSL/.libs/libcoinhsl.so  yes
                           linear_solver = ma97                  yes
                                max_iter = 1000                  yes
                             output_file = IPOPT.out             yes
                             print_level = 5                     yes
                      print_user_options = yes                   yes
                                      sb = yes                   yes
                                     tol = 1e-12                 yes
This is Ipopt version 3.14.7, running with linear solver ma97.

Starting derivative checker for first derivatives.

* jac_g [   22,    1] = -4.9827628658094807e-04 v  ~ -4.9820148007029275e-04  [ 1.502e-04]
* jac_g [    5,    9] = -9.1593399531575415e-16 v  ~  3.3306690738754696e-08  [ 3.331e-04]
* jac_g [   83,    9] =  5.9306797567453027e-16 v  ~ -2.2204460492503131e-08  [ 2.220e-04]
* jac_g [  236,   16] =  5.2041704279304213e-17 v  ~  3.6637378768824159e-08  [ 3.664e-04]

Derivative checker detected 4 error(s).

Number of nonzeros in equality constraint Jacobian...:      136
Number of nonzeros in inequality constraint Jacobian.:     3893
Number of nonzeros in Lagrangian Hessian.............:        0

Total number of variables............................:       17
                     variables with only lower bounds:        1
                variables with lower and upper bounds:       16
                     variables with only upper bounds:        0
Total number of equality constraints.................:        8
Total number of inequality constraints...............:      229
        inequality constraints with only lower bounds:        0
   inequality constraints with lower and upper bounds:      229
        inequality constraints with only upper bounds:        0

iter    objective    inf_pr   inf_du lg(mu)  ||d||  lg(rg) alpha_du alpha_pr  ls
   0  1.0000000e+00 8.44e-01 9.05e-01   0.0 0.00e+00    -  0.00e+00 0.00e+00   0
   1  9.9972007e-01 2.54e-01 1.27e+01  -0.3 7.59e+00    -  2.65e-01 5.90e-01f  1
   2  1.0003248e+00 2.16e-01 1.75e+01  -5.9 1.64e+00    -  4.03e-01 1.47e-01h  1
   3  9.9925844e-01 4.28e-02 1.70e+00  -0.5 1.15e+00    -  9.25e-01 9.63e-01h  1
   4  9.9939053e-01 3.15e-02 3.00e+00  -6.4 2.00e-01    -  8.20e-01 3.19e-01h  1
   5  1.0000882e+00 2.48e-02 3.21e+00  -7.2 3.01e-01    -  2.51e-01 2.06e-01h  1
   6  1.0015081e+00 7.19e-04 6.11e+00  -3.4 1.94e-01    -  4.18e-01 9.90e-01h  1
   7  1.0014220e+00 1.09e-07 8.07e-01  -3.2 1.46e-02    -  9.44e-01 9.90e-01h  1
   8  9.9526966e-01 6.07e-10 5.59e+02  -3.4 5.19e-01    -  5.57e-01 1.00e+00h  1
   9  9.9435410e-01 1.29e-12 4.05e-03  -3.6 1.08e-01    -  1.00e+00 1.00e+00h  1
iter    objective    inf_pr   inf_du lg(mu)  ||d||  lg(rg) alpha_du alpha_pr  ls
  10  9.9101872e-01 2.14e-14 2.43e+03  -4.4 2.29e-01    -  8.78e-01 1.00e+00h  1
  11  9.8950541e-01 1.26e-13 2.48e+04  -3.5 1.70e+00    -  1.00e+00 1.36e-01h  3
  12  9.8906722e-01 1.78e-15 1.01e-02  -4.3 7.93e-02    -  1.00e+00 1.00e+00h  1
  13  9.9126516e-01 1.02e-12 1.23e+02  -4.4 3.92e-01    -  1.00e+00 8.84e-01H  1
  14  9.8905075e-01 8.44e-15 1.32e+02  -4.7 1.56e-01    -  9.27e-01 1.00e+00h  1
  15  9.8800988e-01 3.33e-16 7.34e+01  -5.6 1.78e-01    -  9.63e-01 1.00e+00h  1
  16  9.8573198e-01 2.64e-03 4.74e+01  -5.1 3.04e-01    -  1.00e+00 9.03e-01h  1
  17  9.8625473e-01 4.52e-04 1.69e+02  -4.6 9.12e-01    -  1.81e-01 9.85e-02h  2
  18  9.8597650e-01 2.80e-03 1.89e+03  -4.4 1.23e-01    -  1.00e+00 3.07e-01h  1
  19  9.8534561e-01 8.45e-04 3.50e+02  -4.7 2.80e-01    -  8.92e-01 4.45e-01h  1
iter    objective    inf_pr   inf_du lg(mu)  ||d||  lg(rg) alpha_du alpha_pr  ls
  20  9.8542371e-01 3.38e-04 6.57e+01  -4.7 1.05e-01    -  1.00e+00 7.95e-01h  1
  21  9.8491881e-01 5.55e-16 6.43e-03  -4.7 8.00e-02    -  1.00e+00 1.00e+00h  1
  22  9.8404403e-01 5.32e-05 6.51e-03  -5.6 9.53e-02    -  1.00e+00 1.00e+00h  1
  23  9.8363077e-01 1.83e-05 2.63e+03  -4.5 5.52e-01    -  1.00e+00 1.06e-01h  4
  24  9.8358554e-01 1.61e-05 1.92e+03  -5.0 6.15e-01    -  3.02e-01 2.23e-02h  5
  25  9.8343819e-01 1.13e-05 8.01e-03  -5.6 6.20e-02    -  1.00e+00 1.00e+00h  1
  26  9.8309713e-01 2.38e-05 6.02e+01  -6.9 7.37e-02    -  9.09e-01 6.29e-01h  1
  27  9.8309794e-01 1.93e-05 1.52e+02  -5.6 1.91e-01    -  1.00e+00 9.10e-02h  4
  28  9.8305241e-01 1.78e-15 7.36e-03  -5.6 2.50e-02    -  1.00e+00 1.00e+00h  1
  29  9.8295211e-01 5.55e-16 6.61e-03  -5.9 4.51e-02    -  1.00e+00 1.00e+00h  1
iter    objective    inf_pr   inf_du lg(mu)  ||d||  lg(rg) alpha_du alpha_pr  ls
  30  9.8292225e-01 4.44e-16 1.81e+03  -4.5 8.09e-01    -  6.25e-01 2.59e-02h  3
  31  9.8285509e-01 1.21e-05 3.24e+01  -5.9 5.51e-02    -  9.62e-01 3.75e-01h  1
  32  9.8303706e-01 3.02e-14 4.94e+00  -5.4 7.15e-02    -  1.00e+00 9.78e-01H  1
  33  9.8281339e-01 7.88e-15 6.84e+01  -5.9 1.28e-02    -  1.00e+00 7.38e-01h  1
  34  9.8276534e-01 7.44e-15 2.99e+02  -5.3 1.19e-01    -  1.00e+00 5.48e-02h  5
  35  9.8274773e-01 3.89e-16 9.40e+00  -6.4 4.82e-03    -  1.00e+00 9.47e-01h  1
  36  9.8274308e-01 1.78e-15 2.45e+00  -7.3 1.75e-03    -  1.00e+00 9.44e-01h  1
  37  9.8273928e-01 6.11e-16 1.40e-03  -8.6 1.19e-03    -  1.00e+00 1.00e+00h  1
  38  9.8273876e-01 8.79e-09 5.24e-03  -9.2 1.20e-03    -  1.00e+00 9.74e-01h  1
  39  9.8273821e-01 3.89e-16 3.43e-04  -9.6 2.98e-04    -  1.00e+00 9.95e-01h  1
iter    objective    inf_pr   inf_du lg(mu)  ||d||  lg(rg) alpha_du alpha_pr  ls
  40  9.8273801e-01 2.85e-10 3.07e-04 -11.6 2.53e-04    -  1.00e+00 1.00e+00h  1
  41  9.8273501e-01 7.03e-07 2.11e-03 -12.3 4.93e-03    -  1.00e+00 1.00e+00h  1
  42  9.8273297e-01 1.72e-06 9.53e-03 -11.6 2.03e-01    -  1.00e+00 2.72e-02h  4
  43  9.8273268e-01 1.91e-06 4.38e-03 -11.9 7.73e-02    -  1.00e+00 6.40e-02h  4
  44  9.8270770e-01 5.25e-05 3.74e-03 -12.2 4.20e-02    -  1.00e+00 1.00e+00h  1
  45  9.8270559e-01 5.27e-05 2.07e-02 -10.2 2.64e+00    -  1.00e+00 1.11e-03h  1
  46  9.8270558e-01 5.27e-05 2.09e-02 -10.8 2.91e-02    -  8.62e-01 3.00e-04h  1
  47  9.8299603e-01 1.35e-05 1.14e-02 -10.4 2.20e-02    -  1.00e+00 1.00e+00h  1
  48  9.8269831e-01 1.03e-05 3.26e-03 -10.5 1.91e-02    -  3.65e-01 1.00e+00h  1
  49  9.8270402e-01 3.99e-06 4.18e-03 -11.2 1.13e-02    -  1.00e+00 1.00e+00h  1
iter    objective    inf_pr   inf_du lg(mu)  ||d||  lg(rg) alpha_du alpha_pr  ls
  50  9.8274941e-01 2.22e-16 6.54e-03  -8.9 1.78e-02    -  4.32e-01 1.00e+00H  1
  51  9.8270366e-01 1.53e-06 3.89e-03  -9.4 1.66e-02    -  1.00e+00 1.00e+00h  1
  52  9.8286601e-01 8.88e-16 6.95e-03  -9.1 3.41e-02    -  1.00e+00 1.00e+00H  1
  53  9.8277621e-01 3.53e-05 7.04e-03  -9.2 5.05e-02    -  7.83e-01 6.32e-01h  1
In iteration 53, 1 Slack too small, adjusting variable bound
  54  9.8273130e-01 4.01e-05 4.33e-03  -9.2 2.03e-01    -  2.81e-04 5.61e-02f  1
  55  9.8270355e-01 2.45e-07 3.50e-03  -9.2 4.46e-03    -  1.00e+00 1.00e+00h  1
  56  9.8275409e-01 7.22e-16 1.67e+00  -7.6 2.75e-02    -  3.18e-01 1.00e+00H  1
  57  9.8269865e-01 6.32e-06 2.76e-03  -8.2 1.41e-02    -  1.00e+00 1.00e+00h  1
  58  9.8272597e-01 3.89e-16 9.05e+00  -6.8 2.87e-02    -  1.00e+00 4.31e-01H  1
  59  9.8270406e-01 1.33e-15 2.95e-03  -6.9 9.58e-03    -  1.00e+00 1.00e+00h  1
iter    objective    inf_pr   inf_du lg(mu)  ||d||  lg(rg) alpha_du alpha_pr  ls
  60  9.8270011e-01 2.02e-06 3.92e-03  -6.9 1.28e-02    -  3.75e-01 3.16e-01h  1
  61  9.8270176e-01 1.06e-07 6.75e-03  -8.1 3.49e-03    -  1.00e+00 1.00e+00h  1
  62  9.8269733e-01 1.46e-07 1.27e-03  -9.1 3.87e-03    -  1.00e+00 1.00e+00h  1
  63  9.8269635e-01 9.91e-10 1.25e-03  -9.4 1.26e-03    -  1.00e+00 1.00e+00h  1
  64  9.8270701e-01 1.71e-09 1.68e-03  -9.8 8.57e-03    -  1.00e+00 9.98e-01H  1
  65  9.8269726e-01 9.94e-07 2.45e-03 -10.5 8.89e-03    -  1.00e+00 1.00e+00h  1
  66  9.8269646e-01 1.41e-06 1.63e-02 -10.6 3.98e-02    -  1.00e+00 1.07e-01h  3
  67  9.8269620e-01 6.90e-08 1.10e-03 -10.6 2.34e-03    -  1.00e+00 1.00e+00h  1
  68  9.8269806e-01 4.87e-11 2.16e-03 -11.4 4.18e-03    -  1.00e+00 1.00e+00H  1
  69  9.8269575e-01 2.02e-07 5.23e-04 -11.4 3.38e-03    -  1.00e+00 9.92e-01h  1
iter    objective    inf_pr   inf_du lg(mu)  ||d||  lg(rg) alpha_du alpha_pr  ls
  70  9.8269569e-01 6.61e-09 3.96e-04 -12.3 8.21e-04    -  1.00e+00 1.00e+00h  1
  71  9.8270259e-01 3.33e-09 2.08e-03 -12.3 9.10e-03    -  1.00e+00 1.00e+00H  1
  72  9.8269630e-01 3.28e-07 1.73e-03 -12.3 3.78e-03    -  1.00e+00 1.00e+00h  1
  73  9.8271674e-01 1.44e-10 5.10e-03 -12.3 1.12e-02    -  1.00e+00 1.00e+00H  1
  74  9.8270088e-01 4.93e-09 2.31e-03 -12.3 6.60e-03    -  1.00e+00 1.00e+00H  1
  75  9.8269686e-01 2.56e-07 1.43e-02 -12.3 1.09e-02    -  9.14e-01 2.41e-01h  3
  76  9.8269623e-01 9.91e-08 1.35e-03 -12.3 4.51e-03    -  1.00e+00 1.00e+00h  1
  77  9.8269620e-01 8.87e-08 1.10e-03 -12.3 2.80e-03    -  1.00e+00 1.25e-01h  4
  78  9.8269547e-01 5.47e-09 3.77e-04 -12.3 1.49e-03    -  1.00e+00 1.00e+00h  1
  79  9.8269954e-01 2.52e-08 5.10e-02  -8.3 2.70e-03    -  1.00e+00 8.91e-01H  1
iter    objective    inf_pr   inf_du lg(mu)  ||d||  lg(rg) alpha_du alpha_pr  ls
  80  9.8269538e-01 1.78e-15 1.70e-04  -8.4 2.25e-03    -  1.00e+00 1.00e+00h  1
  81  9.8269535e-01 9.52e-09 7.57e-05 -10.0 5.39e-04    -  1.00e+00 1.00e+00h  1
  82  9.8269531e-01 1.58e-07 8.63e-03  -9.7 1.74e-01    -  1.00e+00 1.34e-02h  6
  83  9.8272583e-01 1.67e-16 7.43e-03  -9.8 6.16e-02    -  1.00e+00 1.00e+00H  1
  84  9.8272545e-01 3.57e-08 7.41e-03  -9.8 1.78e-01    -  3.93e-01 7.73e-03h  2
  85  9.8272085e-01 4.67e-08 7.82e-03  -9.8 1.72e+01    -  2.37e-03 5.34e-05h  6
  86  9.8271986e-01 1.66e-07 8.01e-03  -9.8 1.82e-01    -  1.00e+00 7.63e-03h  1
  87  9.8280850e-01 6.44e-15 8.54e-03  -9.8 1.06e-02    -  4.56e-01 1.00e+00H  1
  88  9.8270892e-01 2.22e-16 4.40e-03  -9.8 5.68e-03    -  9.82e-01 1.00e+00H  1
In iteration 88, 1 Slack too small, adjusting variable bound
  89  9.8270518e-01 1.99e-09 3.92e-03  -9.8 6.20e-03    -  7.92e-01 7.87e-02h  1
iter    objective    inf_pr   inf_du lg(mu)  ||d||  lg(rg) alpha_du alpha_pr  ls
  90  9.8270518e-01 1.99e-09 4.28e-03  -9.8 5.11e-02    -  1.00e+00 8.56e-05h  1
  91  9.8270123e-01 7.73e-09 8.21e-03  -9.8 3.80e-02    -  7.78e-01 3.12e-02f  6
  92  9.8270082e-01 7.02e-08 8.09e-03  -9.8 1.56e-01    -  4.22e-03 1.02e-02h  7
  93  9.8270000e-01 7.37e-08 1.03e-02  -9.8 3.75e-01    -  1.03e-01 1.46e-03h  7
  94  9.8271035e-01 1.11e-16 5.25e-03  -9.8 9.92e-03    -  2.28e-01 1.00e+00H  1
  95  9.8270129e-01 1.22e-06 8.88e-03 -10.7 2.21e-02    -  1.00e+00 3.59e-01h  1
  96  9.8270128e-01 1.68e-06 9.00e-03 -10.8 5.42e-01    -  6.08e-01 6.63e-05h  1
  97  9.8269476e-01 1.50e-06 7.92e-03 -10.8 1.74e-02    -  6.52e-01 1.25e-01h  4
  98  9.8269414e-01 1.44e-08 2.40e-03  -9.1 2.08e-03    -  1.00e+00 1.00e+00h  1
  99  9.8269350e-01 1.24e-09 3.19e-04  -9.6 7.92e-04    -  1.00e+00 1.00e+00h  1
iter    objective    inf_pr   inf_du lg(mu)  ||d||  lg(rg) alpha_du alpha_pr  ls
 100  9.8269349e-01 9.99e-16 2.43e-05  -9.7 1.22e-04    -  1.00e+00 1.00e+00h  1
 101  9.8269349e-01 5.01e-12 1.46e-05 -12.3 2.02e-05    -  1.00e+00 9.99e-01h  1
 102  9.8269349e-01 1.78e-15 3.25e-07 -12.3 8.22e-06    -  1.00e+00 1.00e+00h  1
 103  9.8269349e-01 1.78e-15 6.71e-08 -12.3 1.53e-07    -  1.00e+00 1.00e+00h  1
 104  9.8269349e-01 5.55e-16 8.12e-09 -12.3 3.49e-08    -  1.00e+00 1.00e+00h  1
 105  9.8269349e-01 4.44e-16 8.36e-10 -12.3 3.02e-09    -  1.00e+00 1.00e+00h  1
 106  9.8269349e-01 4.44e-16 1.52e-10 -12.3 4.44e-10    -  1.00e+00 1.00e+00h  1
 107  9.8269349e-01 9.99e-16 4.40e-12 -12.3 2.76e-11    -  1.00e+00 1.00e+00h  1
 108  9.8269349e-01 8.33e-16 6.17e-13 -12.3 3.62e-12    -  1.00e+00 1.00e+00h  1

Number of Iterations....: 108

                                   (scaled)                 (unscaled)
Objective...............:   9.8269348653627808e-01    9.8269348653627808e-01
Dual infeasibility......:   6.1723961837938006e-13    6.1723961837938006e-13
Constraint violation....:   8.3266726846886741e-16    8.3266726846886741e-16
Variable bound violation:   1.1997943971664426e-07    1.1997943971664426e-07
Complementarity.........:   5.0000722259563115e-13    5.0000722259563115e-13
Overall NLP error.......:   6.1723961837938006e-13    6.1723961837938006e-13


Number of objective function evaluations             = 231
Number of objective gradient evaluations             = 109
Number of equality constraint evaluations            = 231
Number of inequality constraint evaluations          = 231
Number of equality constraint Jacobian evaluations   = 109
Number of inequality constraint Jacobian evaluations = 109
Number of Lagrangian Hessian evaluations             = 0
Total seconds in IPOPT                               = 8.194

EXIT: Optimal Solution Found.
